p cnf 184 351
-5 169 -175 -177 -179 0 
-6 169 -175 -177 -179 0 
-7 169 -175 -177 -179 0 
-8 169 -175 -177 -179 0 
-9 169 -175 -177 -179 0 
-10 -11 170 170 -11 0 
-12 35 108 124 -13 16 114 163 -14 170 -11 0 
-15 -16 13 114 163 170 -11 0 
-17 170 -11 0 
-18 170 -11 0 
-19 170 -11 0 
-20 170 -11 0 
-21 74 170 -11 0 
-12 35 108 124 -14 170 -11 0 
-22 70 97 102 112 169 -175 -177 -179 0 
-23 -24 169 -175 -177 -179 0 
-27 169 -175 -177 -179 0 
-28 -29 -30 46 48 79 93 110 165 171 -169 -175 -177 -179 0 
-31 34 45 72 95 111 120 146 149 155 172 -169 -175 -177 -179 0 
-32 86 -33 -34 31 45 72 95 111 120 146 149 155 -35 12 108 124 173 -169 -175 -177 -179 0 
-36 38 47 51 137 139 172 -169 -175 -177 -179 0 
-37 85 -38 36 47 51 137 139 174 -4 -53 -169 -175 -177 -179 0 
-39 -40 169 -175 -177 -179 0 
-39 -41 50 83 119 138 157 167 169 -175 -177 -179 0 
-42 169 -175 -177 -179 0 
-44 -45 31 34 72 95 111 120 146 149 155 169 -175 -177 -179 0 
-44 -46 30 48 79 93 110 165 169 -175 -177 -179 0 
-47 36 38 51 137 139 169 -175 -177 -179 0 
-44 -48 30 46 79 93 110 165 169 -175 -177 -179 0 
-49 169 -175 -177 -179 0 
-50 41 83 119 138 157 167 169 -175 -177 -179 0 
-51 36 38 47 137 139 169 -175 -177 -179 0 
-52 25 -47 36 38 51 137 139 169 -175 -177 -179 0 
-53 4 -54 169 -175 -177 -179 0 
-44 -49 169 -175 -177 -179 0 
-55 169 -175 -177 -179 0 
-57 169 -175 -177 -179 0 
-58 -59 175 -169 -177 -179 0 
-60 63 65 67 136 141 153 158 160 175 -169 -177 -179 0 
-61 176 -169 -175 -177 -179 0 
-62 176 -169 -175 -177 -179 0 
-63 60 65 67 136 141 153 158 160 169 -175 -177 -179 0 
-64 169 -175 -177 -179 0 
-65 60 63 67 136 141 153 158 160 174 -4 -53 -169 -175 -177 -179 0 
-58 169 -175 -177 -179 0 
-66 169 -175 -177 -179 0 
-67 60 63 65 136 141 153 158 160 169 -175 -177 -179 0 
-68 169 -175 -177 -179 0 
-69 177 -169 -175 -179 0 
-70 22 97 102 112 -44 169 -175 -177 -179 0 
-71 169 -175 -177 -179 0 
-72 31 34 45 95 111 120 146 149 155 169 -175 -177 -179 0 
-73 170 -11 0 
-74 21 178 -99 -154 -169 -175 -177 -179 0 
-75 -76 -77 169 -175 -177 -179 0 
-12 35 108 124 -13 16 114 163 -77 169 -175 -177 -179 0 
-12 35 108 124 -77 169 -175 -177 -179 0 
-78 132 -79 30 46 48 93 110 165 -77 169 -175 -177 -179 0 
-77 177 -169 -175 -179 0 
-82 169 -175 -177 -179 0 
-83 41 50 119 138 157 167 169 -175 -177 -179 0 
-84 172 -169 -175 -177 -179 0 
-85 37 -86 32 172 -169 -175 -177 -179 0 
-87 169 -175 -177 -179 0 
-88 178 -99 -154 -169 -175 -177 -179 0 
-11 170 169 -175 -177 -179 0 
-89 -90 169 -175 -177 -179 0 
-48 30 46 79 93 110 165 -91 169 -175 -177 -179 0 
-37 85 -30 46 48 79 93 110 165 169 -175 -177 -179 0 
-51 36 38 47 137 139 -37 85 169 -175 -177 -179 0 
-93 30 46 48 79 110 165 169 -175 -177 -179 0 
-78 132 -79 30 46 48 93 110 165 -94 169 -175 -177 -179 0 
-95 31 34 45 72 111 120 146 149 155 -94 177 -169 -175 -179 0 
-96 179 -169 -175 -177 0 
-97 22 70 102 112 -98 169 -175 -177 -179 0 
-62 -99 154 -31 34 45 72 95 111 120 146 149 155 -100 169 -175 -177 -179 0 
-81 -4 53 -99 154 169 -175 -177 -179 0 
-67 60 63 65 136 141 153 158 160 -77 169 -175 -177 -179 0 
-101 -13 16 114 163 169 -175 -177 -179 0 
-102 22 70 97 112 -77 169 -175 -177 -179 0 
-51 36 38 47 137 139 -103 169 -175 -177 -179 0 
-79 30 46 48 93 110 165 -12 35 108 124 -77 169 -175 -177 -179 0 
-50 41 83 119 138 157 167 -77 169 -175 -177 -179 0 
-101 -77 169 -175 -177 -179 0 
-104 169 -175 -177 -179 0 
-37 85 -79 30 46 48 93 110 165 169 -175 -177 -179 0 
-37 85 -67 60 63 65 136 141 153 158 160 169 -175 -177 -179 0 
-52 25 -54 169 -175 -177 -179 0 
-67 60 63 65 136 141 153 158 160 -79 30 46 48 93 110 165 169 -175 -177 -179 0 
-52 25 -49 169 -175 -177 -179 0 
-12 35 108 124 -13 16 114 163 -105 169 -175 -177 -179 0 
-105 169 -175 -177 -179 0 
-106 -77 169 -175 -177 -179 0 
-107 131 -77 169 -175 -177 -179 0 
-108 12 35 124 -109 169 -175 -177 -179 0 
-110 30 46 48 79 93 165 -111 31 34 45 72 95 120 146 149 155 169 -175 -177 -179 0 
-112 22 70 97 102 -113 -114 13 16 163 169 -175 -177 -179 0 
-115 169 -175 -177 -179 0 
-116 172 -169 -175 -177 -179 0 
-117 178 -99 -154 -169 -175 -177 -179 0 
-118 178 -99 -154 -169 -175 -177 -179 0 
-47 36 38 51 137 139 -119 41 50 83 138 157 167 169 -175 -177 -179 0 
-37 85 -120 31 34 45 72 95 111 146 149 155 169 -175 -177 -179 0 
-55 -65 60 63 67 136 141 153 158 160 169 -175 -177 -179 0 
-68 -79 30 46 48 93 110 165 -121 169 -175 -177 -179 0 
-122 169 -175 -177 -179 0 
-123 169 -175 -177 -179 0 
-124 12 35 108 169 -175 -177 -179 0 
-125 -126 178 -99 -154 -169 -175 -177 -179 0 
-126 178 -99 -154 -169 -175 -177 -179 0 
-126 175 -169 -177 -179 0 
-125 -126 175 -169 -177 -179 0 
-12 35 108 124 -105 169 -175 -177 -179 0 
-95 31 34 45 72 111 120 146 149 155 -105 169 -175 -177 -179 0 
-78 132 -79 30 46 48 93 110 165 -105 169 -175 -177 -179 0 
-95 31 34 45 72 111 120 146 149 155 -105 177 -169 -175 -179 0 
-127 129 -105 169 -175 -177 -179 0 
-105 179 -169 -175 -177 0 
-75 -76 -105 169 -175 -177 -179 0 
-128 -129 127 -105 169 -175 -177 -179 0 
-73 169 -175 -177 -179 0 
-130 -11 170 169 -175 -177 -179 0 
-131 107 169 -175 -177 -179 0 
-132 78 -54 169 -175 -177 -179 0 
-95 31 34 45 72 111 120 146 149 155 -50 41 83 119 138 157 167 169 -175 -177 -179 0 
-12 35 108 124 169 -175 -177 -179 0 
-133 169 -175 -177 -179 0 
-134 169 -175 -177 -179 0 
-35 12 108 124 -135 180 -169 -175 -177 -179 0 
-44 169 -175 -177 -179 0 
-136 60 63 65 67 141 153 158 160 169 -175 -177 -179 0 
-137 36 38 47 51 139 175 -169 -177 -179 0 
-138 41 50 83 119 157 167 178 -99 -154 -169 -175 -177 -179 0 
-137 36 38 47 51 139 181 -169 -175 -177 -179 0 
-139 36 38 47 51 137 -140 26 -52 25 -141 60 63 65 67 136 153 158 160 -142 181 -169 -175 -177 -179 0 
-140 26 -52 25 -141 60 63 65 67 136 153 158 160 -142 181 -169 -175 -177 -179 0 
-143 169 -175 -177 -179 0 
-144 169 -175 -177 -179 0 
-145 169 -175 -177 -179 0 
-146 31 34 45 72 95 111 120 149 155 -147 182 -150 -169 -175 -177 -179 0 
-148 176 -169 -175 -177 -179 0 
-149 31 34 45 72 95 111 120 146 155 176 -169 -175 -177 -179 0 
-140 26 -150 -151 -149 31 34 45 72 95 111 120 146 155 176 -169 -175 -177 -179 0 
-152 -153 60 63 65 67 136 141 158 160 -154 99 -155 31 34 45 72 95 111 120 146 149 183 -169 -175 -177 -179 0 
-139 36 38 47 51 137 -141 60 63 65 67 136 153 158 160 -142 181 -169 -175 -177 -179 0 
-156 175 -169 -177 -179 0 
-157 41 50 83 119 138 167 174 -4 -53 -169 -175 -177 -179 0 
-158 60 63 65 67 136 141 153 160 178 -99 -154 -169 -175 -177 -179 0 
-60 63 65 67 136 141 153 158 160 178 -99 -154 -169 -175 -177 -179 0 
-159 178 -99 -154 -169 -175 -177 -179 0 
-159 -114 13 16 163 178 -99 -154 -169 -175 -177 -179 0 
-160 60 63 65 67 136 141 153 158 178 -99 -154 -169 -175 -177 -179 0 
-154 99 184 -169 -175 -177 -179 0 
-81 -161 175 -169 -177 -179 0 
-162 -163 13 16 114 175 -169 -177 -179 0 
-164 178 -99 -154 -169 -175 -177 -179 0 
-165 30 46 48 79 93 110 178 -99 -154 -169 -175 -177 -179 0 
-159 175 -169 -177 -179 0 
-165 30 46 48 79 93 110 175 -169 -177 -179 0 
-81 -132 78 -12 35 108 124 169 -175 -177 -179 0 
-160 60 63 65 67 136 141 153 158 -166 169 -175 -177 -179 0 
-102 22 70 97 112 -13 16 114 163 169 -175 -177 -179 0 
-167 41 50 83 119 138 157 -168 178 -99 -154 -169 -175 -177 -179 0 
-167 41 50 83 119 138 157 -168 174 -4 -53 -169 -175 -177 -179 0 
-50 41 83 119 138 157 167 -13 16 114 163 169 -175 -177 -179 0 
-78 132 -79 30 46 48 93 110 165 -13 16 114 163 169 -175 -177 -179 0 
-51 36 38 47 137 139 -13 16 114 163 169 -175 -177 -179 0 
-7 -88 -109 0 
124 126 129 0 
49 -68 70 0 
-24 87 -132 0 
-10 141 167 0 
20 125 -162 0 
-11 21 -150 0 
33 -72 -88 0 
-39 -46 -152 0 
-23 24 119 0 
2 24 -148 0 
18 113 -152 0 
1 -80 -172 0 
16 -57 67 0 
-35 82 -127 0 
61 -95 -118 0 
-19 114 115 0 
130 -156 -179 0 
4 -51 -122 0 
-75 -148 181 0 
-50 176 179 0 
-39 89 -172 0 
-23 34 172 0 
-102 133 149 0 
6 -37 106 0 
41 -91 158 0 
-64 -80 95 0 
-48 -114 -126 0 
63 -159 -176 0 
-36 64 -78 0 
-9 86 -133 0 
33 -45 163 0 
80 -85 119 0 
11 24 60 0 
81 142 -157 0 
-94 145 146 0 
49 93 160 0 
28 -156 -162 0 
-43 -53 67 0 
4 24 -66 0 
47 -88 -91 0 
63 -67 -132 0 
38 63 111 0 
18 -51 -174 0 
-113 150 -168 0 
-5 50 -55 0 
-81 -150 169 0 
3 11 134 0 
32 105 -131 0 
10 69 -134 0 
-56 109 -178 0 
-20 -106 -143 0 
17 88 -173 0 
6 9 111 0 
65 126 -159 0 
-51 -87 134 0 
-89 126 -179 0 
-62 160 -162 0 
30 92 -174 0 
62 104 168 0 
-10 80 149 0 
-35 77 -170 0 
154 170 181 0 
87 133 133 0 
-46 73 153 0 
-88 -118 -125 0 
61 -114 149 0 
32 -55 -87 0 
-59 113 116 0 
-30 102 158 0 
-16 -129 -139 0 
-9 48 53 0 
-71 109 130 0 
104 127 -173 0 
-62 71 -115 0 
102 156 -170 0 
80 -104 173 0 
13 -125 160 0 
127 165 177 0 
105 -156 -179 0 
-14 -84 154 0 
26 -84 -146 0 
35 35 -78 0 
-7 174 174 0 
-35 130 175 0 
15 36 92 0 
30 55 115 0 
-96 -140 -157 0 
82 141 184 0 
27 -137 160 0 
3 -8 -174 0 
21 -60 -84 0 
-130 -147 -168 0 
24 -58 -126 0 
-26 31 100 0 
-39 -121 -158 0 
-129 -160 -160 0 
37 -133 -168 0 
103 -111 148 0 
-55 82 -98 0 
1 -41 170 0 
4 -59 -120 0 
-14 91 -142 0 
73 -83 -125 0 
-27 -124 -175 0 
90 116 -123 0 
-22 28 -156 0 
105 121 -125 0 
55 65 -162 0 
63 -80 151 0 
56 -57 -112 0 
-7 82 128 0 
96 97 184 0 
67 -157 166 0 
5 36 124 0 
-16 -45 -182 0 
15 30 -161 0 
120 -165 -171 0 
-54 -158 170 0 
-25 31 39 0 
-52 80 -109 0 
113 147 183 0 
12 40 -63 0 
23 121 174 0 
-63 -122 -176 0 
-43 59 -156 0 
21 -35 66 0 
-9 69 -148 0 
-36 48 -94 0 
71 75 173 0 
63 106 -119 0 
-59 -106 -112 0 
93 -99 -102 0 
91 104 160 0 
50 104 106 0 
-64 -118 -126 0 
113 -131 169 0 
-20 110 -144 0 
5 -15 46 0 
39 -87 106 0 
-1 26 -121 0 
95 116 162 0 
-56 -104 158 0 
-42 -69 157 0 
19 25 38 0 
8 49 -158 0 
24 120 150 0 
-66 -89 101 0 
-30 41 159 0 
-58 159 162 0 
36 62 -162 0 
12 55 113 0 
-72 104 -162 0 
67 91 162 0 
38 68 -71 0 
-22 -77 -85 0 
-41 88 -181 0 
-24 -44 -51 0 
-86 149 -178 0 
142 152 -154 0 
-30 150 -184 0 
31 92 147 0 
153 159 -170 0 
-19 44 174 0 
-42 164 177 0 
16 -81 146 0 
-37 45 -61 0 
-38 -61 74 0 
49 111 -139 0 
65 -118 -140 0 
-72 -92 156 0 
35 69 133 0 
-49 -69 -72 0 
-4 113 -176 0 
-2 45 176 0 
-62 -71 98 0 
-9 -12 -144 0 
101 118 -146 0 
-51 63 -94 0 
65 67 140 0 
-63 -109 -165 0 
58 84 -177 0 
-27 159 162 0 
-33 33 122 0 
